files/upTests/tuple-of-sets2/0005.eprime.solution
language ESSENCE' 1.0
$ minion Nodes: 8
$ minion TotalTime: 0.001834
$ Savile Row TotalTime: 0.895
letting a_tuple1 be 0
letting b_tuple1 be 0
letting b_tuple2 be 3
letting c_tuple1 be 0
letting b_tuple3_SetExplicitVarSizeWithDefault be [2, 2;int(1..2)]
letting c_tuple2_SetExplicitVarSizeWithDefault be [2, 2;int(1..2)]
